words_hard_train/6302.qaiger
aag 67 16 0 1 51
2
4
8
12
16
24
28
36
46
58
62
72
96
104
114
118
134
6 2 4
10 6 8
14 10 12
18 15 17
20 14 16
22 19 21
26 22 24
30 21 29
32 20 28
34 31 33
38 34 36
40 27 39
42 11 13
44 43 15
48 45 47
50 23 25
52 49 51
54 7 9
56 55 11
60 56 58
64 63 5
66 65 7
68 62 4
70 69 3
74 70 73
76 66 75
78 61 77
80 57 59
82 79 81
84 44 46
86 83 85
88 52 87
90 40 89
92 35 37
94 91 93
98 33 97
100 32 96
102 99 101
106 102 104
108 95 107
110 103 105
112 109 111
116 112 115
120 100 118
122 116 121
124 101 119
126 125 117
128 123 127
130 113 114
132 130 121
134 129 133
i0 1 x1[0]
i1 1 x1[1]
i2 1 x1[2]
i3 1 x1[3]
i4 1 x1[4]
i5 2 y1[4]
i6 1 x1[5]
i7 2 y1[5]
i8 2 y1[3]
i9 2 y1[2]
i10 2 y1[1]
i11 2 y1[0]
i12 1 x1[6]
i13 2 y1[6]
i14 1 x1[7]
i15 2 y1[7]
o0 bv[0]
c
simplified
  >=
    subtract
      reverse
        1
      unary minus
        2 y1
    invert
      1 x1
