words_hard_train/6302.qaiger.qdimacs
p cnf 67 154
a 1 2 4 6 8 14 48 57 0
e 3 5 7 9 10 11 12 13 15 16 17 18 19 20 21 22 23 24 25 26 27 28 29 30 31 32 33 34 35 36 37 38 39 40 41 42 43 44 45 46 47 49 50 51 52 53 54 55 56 58 59 60 61 62 63 64 65 66 67 0
-1 -2 3 0
1 -3 0
2 -3 0
-3 -4 5 0
3 -5 0
4 -5 0
-5 -6 7 0
5 -7 0
6 -7 0
7 8 9 0
-7 -9 0
-8 -9 0
-7 -8 10 0
7 -10 0
8 -10 0
9 10 11 0
-9 -11 0
-10 -11 0
-11 -12 13 0
11 -13 0
12 -13 0
10 14 15 0
-10 -15 0
-14 -15 0
-10 -14 16 0
10 -16 0
14 -16 0
15 16 17 0
-15 -17 0
-16 -17 0
-17 -18 19 0
17 -19 0
18 -19 0
13 19 20 0
-13 -20 0
-19 -20 0
5 6 21 0
-5 -21 0
-6 -21 0
21 7 22 0
-21 -22 0
-7 -22 0
22 23 24 0
-22 -24 0
-23 -24 0
11 12 25 0
-11 -25 0
-12 -25 0
24 25 26 0
-24 -26 0
-25 -26 0
3 4 27 0
-3 -27 0
-4 -27 0
27 5 28 0
-27 -28 0
-5 -28 0
-28 -29 30 0
28 -30 0
29 -30 0
31 2 32 0
-31 -32 0
-2 -32 0
32 3 33 0
-32 -33 0
-3 -33 0
-31 -2 34 0
31 -34 0
2 -34 0
34 1 35 0
-34 -35 0
-1 -35 0
-35 36 37 0
35 -37 0
-36 -37 0
-33 37 38 0
33 -38 0
-37 -38 0
30 38 39 0
-30 -39 0
-38 -39 0
28 29 40 0
-28 -40 0
-29 -40 0
39 40 41 0
-39 -41 0
-40 -41 0
-22 -23 42 0
22 -42 0
23 -42 0
41 42 43 0
-41 -43 0
-42 -43 0
-26 43 44 0
26 -44 0
-43 -44 0
-20 44 45 0
20 -45 0
-44 -45 0
17 18 46 0
-17 -46 0
-18 -46 0
45 46 47 0
-45 -47 0
-46 -47 0
16 48 49 0
-16 -49 0
-48 -49 0
-16 -48 50 0
16 -50 0
48 -50 0
49 50 51 0
-49 -51 0
-50 -51 0
-51 -52 53 0
51 -53 0
52 -53 0
47 53 54 0
-47 -54 0
-53 -54 0
51 52 55 0
-51 -55 0
-52 -55 0
54 55 56 0
-54 -56 0
-55 -56 0
-56 57 58 0
56 -58 0
-57 -58 0
-50 -59 60 0
50 -60 0
59 -60 0
-58 60 61 0
58 -61 0
-60 -61 0
50 59 62 0
-50 -62 0
-59 -62 0
62 58 63 0
-62 -63 0
-58 -63 0
61 63 64 0
-61 -64 0
-63 -64 0
56 -57 65 0
-56 -65 0
57 -65 0
-65 60 66 0
65 -66 0
-60 -66 0
64 66 67 0
-64 -67 0
-66 -67 0
67 0
